(set-info :Origin "This instance was generated by: BanditFuzz-- an RL fuzzer for SMT solvers" )
(set-info :Author "Joe Scott, Fed Mora, Vijay Ganesh" )
(set-info :Contact "Joe Scott, joseph.scott@uwaterloo.ca")
(set-logic QF_BV)
(declare-const bool_0 Bool)
(declare-const bool_1 Bool)
(declare-const bool_2 Bool)
(declare-const bool_3 Bool)
(declare-const bool_4 Bool)
(declare-const bv_0 (_ BitVec 32))
(declare-const bv_1 (_ BitVec 32))
(declare-const bv_2 (_ BitVec 32))
(declare-const bv_3 (_ BitVec 32))
(declare-const bv_4 (_ BitVec 32))
(assert (bvugt (bvor (bvashr bv_1 #x83b15910 ) (bvsrem bv_4 #x05494328 )) (bvmul (bvmul bv_0 #x49ce2348 ) (bvnor #x380c0d76  bv_3))))
(assert (bvsge (bvlshr (bvmul #x3a05bb52  #x8489a287 ) (bvshl bv_1 #xfc9a6dc2 )) (bvmul (bvxnor bv_4 #xa68e5370 ) (bvsrem bv_0 #x33ec8497 ))))
(assert (bvuge (bvnor (bvshl #xba9832b6  bv_0) (bvlshr #x2e634aa5  #xc91eed0d )) (bvsdiv (bvsrem bv_3 #xb9e19cbf ) (bvmul bv_4 #x9150914c ))))
(assert (xor (=> (xor false bool_2) (bvsle bv_2 #x64dd8273 )) (and (bvule #x3f8b608e  bv_3) (bvsle #x5ee030c4  bv_1))))
(assert (bvsgt (bvor (bvor #x36c98158  #xc0723b1f ) (bvurem bv_3 #xf0743b09 )) (bvxor (bvsdiv bv_3 #x229d585c ) (bvor #xf8c85200  bv_2))))
(check-sat)
(exit)
